p tw 42 273
0 1
0 2
0 3
0 4
0 5
0 6
0 7
0 8
0 9
0 10
1 2
1 3
1 4
1 5
1 6
1 7
1 8
1 9
1 10
1 16
1 19
1 20
1 21
1 22
1 23
1 24
1 11
1 13
1 15
1 32
1 37
1 39
1 40
1 41
2 3
2 4
2 5
2 6
2 7
2 8
2 9
2 10
3 4
3 5
3 6
3 7
3 8
3 9
3 10
3 11
3 13
3 15
3 19
3 32
3 37
3 39
3 40
3 41
4 5
4 6
4 7
4 8
4 9
4 10
5 6
5 7
5 8
5 9
5 10
6 7
6 8
6 9
6 10
6 16
6 19
6 20
6 21
6 22
6 23
6 24
7 8
7 9
7 10
7 11
7 12
7 13
7 14
7 15
7 16
7 17
7 18
7 19
8 9
8 10
8 16
8 19
8 20
8 21
8 22
8 23
8 24
9 10
9 26
9 33
9 34
9 35
9 36
9 37
9 38
10 16
10 19
10 20
10 21
10 22
10 23
10 24
10 26
10 33
10 34
10 35
10 36
10 37
10 38
11 12
11 13
11 14
11 15
11 16
11 17
11 18
11 19
11 25
11 26
11 27
11 28
11 29
11 30
11 31
11 32
11 37
11 39
11 40
11 41
12 13
12 14
12 15
12 16
12 17
12 18
12 19
13 14
13 15
13 16
13 17
13 18
13 19
13 32
13 37
13 39
13 40
13 41
14 15
14 16
14 17
14 18
14 19
15 16
15 17
15 18
15 19
15 32
15 37
15 39
15 40
15 41
16 17
16 18
16 19
16 20
16 21
16 22
16 23
16 24
17 18
17 19
17 25
17 26
17 27
17 28
17 29
17 30
17 31
17 32
18 19
19 20
19 21
19 22
19 23
19 24
19 32
19 37
19 39
19 40
19 41
20 21
20 22
20 23
20 24
21 22
21 23
21 24
22 23
22 24
23 24
25 26
25 27
25 28
25 29
25 30
25 31
25 32
26 27
26 28
26 29
26 30
26 31
26 32
26 33
26 34
26 35
26 36
26 37
26 38
27 28
27 29
27 30
27 31
27 32
28 29
28 30
28 31
28 32
29 30
29 31
29 32
30 31
30 32
31 32
32 37
32 39
32 40
32 41
33 34
33 35
33 36
33 37
33 38
34 35
34 36
34 37
34 38
35 36
35 37
35 38
36 37
36 38
37 38
37 39
37 40
37 41
39 40
39 41
40 41
